15
1 0 4
2 0 8
3 0 10
3 1 8
4 1 11
4 3 2
5 0 9
5 3 3
5 4 7
6 2 1
6 4 1
6 5 5
7 1 8
7 3 8
7 4 11
7 5 3
8 2 11
8 5 6
8 7 9
9 3 3
9 5 8
9 6 11
9 8 5
10 0 2
10 4 8
10 6 10
10 9 8
11 1 6
11 5 11
11 8 3
12 2 3
12 3 1
12 4 8
12 5 11
12 7 9
12 8 7
12 9 3
12 10 5
13 0 1
13 5 7
13 7 3
13 8 11
13 11 9
13 12 11
14 1 1
14 5 5
14 9 6
14 10 4
14 12 9
14 13 9
